50

100 20 317
100 3 311
99 15 300
96 24 436
95 9 415
94 22 450
92 25 341
92 21 332
90 13 424
89 14 414
89 27 279
84 3 281
82 25 403
80 13 353
80 16 264
79 18 354
74 4 346
74 19 377
72 18 376
71 12 384
69 7 274
67 5 284
67 17 425
64 19 442
62 13 386
60 12 425
60 14 273
59 17 420
58 1 382
55 16 341
51 2 427
48 14 416
47 11 425
46 12 342
45 1 357
43 7 283
42 9 170
41 10 427
41 13 446
40 8 304
38 3 204
34 6 230
33 9 298
32 7 396
27 7 165
26 6 84
24 5 255
24 2 361
23 1 377
20 5 303
